c File: data_files/evolved_graphs/g0350.col
c
c Auto generated graph
c
p edge 100 1362
e 1 4
e 1 5
e 1 27
e 1 28
e 1 30
e 1 31
e 1 32
e 1 34
e 1 37
e 1 39
e 1 44
e 1 53
e 1 56
e 1 58
e 1 70
e 1 74
e 1 78
e 1 79
e 1 90
e 1 92
e 1 93
e 1 94
e 1 96
e 1 99
e 2 4
e 2 5
e 2 12
e 2 27
e 2 28
e 2 29
e 2 30
e 2 31
e 2 36
e 2 37
e 2 41
e 2 45
e 2 59
e 2 62
e 2 66
e 2 70
e 2 71
e 2 77
e 2 78
e 2 84
e 2 90
e 2 91
e 2 92
e 2 93
e 2 94
e 2 99
e 3 4
e 3 10
e 3 13
e 3 21
e 3 27
e 3 28
e 3 29
e 3 30
e 3 31
e 3 32
e 3 33
e 3 34
e 3 36
e 3 37
e 3 38
e 3 39
e 3 40
e 3 41
e 3 42
e 3 43
e 3 44
e 3 45
e 3 46
e 3 47
e 3 48
e 3 49
e 3 50
e 3 51
e 3 52
e 3 53
e 3 54
e 3 55
e 3 56
e 3 57
e 3 58
e 3 59
e 3 60
e 3 61
e 3 62
e 3 63
e 3 64
e 3 65
e 3 66
e 3 67
e 3 68
e 3 69
e 3 70
e 3 72
e 3 73
e 3 86
e 3 87
e 3 90
e 3 91
e 3 92
e 3 93
e 3 94
e 3 95
e 3 100
e 4 27
e 4 28
e 4 29
e 4 30
e 4 31
e 4 32
e 4 33
e 4 34
e 4 36
e 4 37
e 4 38
e 4 39
e 4 40
e 4 41
e 4 42
e 4 43
e 4 44
e 4 45
e 4 46
e 4 47
e 4 48
e 4 49
e 4 50
e 4 51
e 4 52
e 4 53
e 4 54
e 4 55
e 4 56
e 4 57
e 4 58
e 4 59
e 4 61
e 4 62
e 4 63
e 4 64
e 4 66
e 4 67
e 4 69
e 4 71
e 4 74
e 4 78
e 4 82
e 4 83
e 4 84
e 4 89
e 4 90
e 4 91
e 4 92
e 4 93
e 4 94
e 4 97
e 5 27
e 5 28
e 5 29
e 5 30
e 5 31
e 5 32
e 5 33
e 5 34
e 5 35
e 5 36
e 5 37
e 5 38
e 5 39
e 5 40
e 5 41
e 5 42
e 5 43
e 5 44
e 5 45
e 5 46
e 5 47
e 5 48
e 5 49
e 5 50
e 5 51
e 5 52
e 5 53
e 5 54
e 5 55
e 5 56
e 5 57
e 5 58
e 5 59
e 5 60
e 5 61
e 5 62
e 5 63
e 5 64
e 5 65
e 5 66
e 5 67
e 5 69
e 5 71
e 5 78
e 5 90
e 5 91
e 5 92
e 5 93
e 5 94
e 5 95
e 5 96
e 5 97
e 5 98
e 5 99
e 5 100
e 6 24
e 6 25
e 6 26
e 6 27
e 6 28
e 6 29
e 6 30
e 6 31
e 6 32
e 6 33
e 6 34
e 6 35
e 6 36
e 6 37
e 6 38
e 6 39
e 6 40
e 6 41
e 6 42
e 6 43
e 6 44
e 6 45
e 6 46
e 6 47
e 6 48
e 6 49
e 6 50
e 6 51
e 6 52
e 6 53
e 6 54
e 6 55
e 6 56
e 6 57
e 6 58
e 6 59
e 6 60
e 6 61
e 6 62
e 6 63
e 6 64
e 6 65
e 6 66
e 6 67
e 6 68
e 6 69
e 6 73
e 6 77
e 6 83
e 6 84
e 6 87
e 6 90
e 6 91
e 6 92
e 6 93
e 6 94
e 6 95
e 6 96
e 6 97
e 6 98
e 6 99
e 6 100
e 7 17
e 7 20
e 7 25
e 7 26
e 7 29
e 7 30
e 7 31
e 7 32
e 7 33
e 7 34
e 7 35
e 7 36
e 7 37
e 7 38
e 7 39
e 7 40
e 7 41
e 7 42
e 7 43
e 7 44
e 7 45
e 7 46
e 7 47
e 7 48
e 7 49
e 7 50
e 7 51
e 7 52
e 7 53
e 7 54
e 7 55
e 7 56
e 7 57
e 7 58
e 7 59
e 7 60
e 7 61
e 7 62
e 7 63
e 7 64
e 7 65
e 7 66
e 7 67
e 7 69
e 7 71
e 7 74
e 7 76
e 7 80
e 7 85
e 7 89
e 7 95
e 7 96
e 7 97
e 7 98
e 7 99
e 7 100
e 8 24
e 8 25
e 8 26
e 8 29
e 8 30
e 8 31
e 8 32
e 8 33
e 8 34
e 8 35
e 8 36
e 8 37
e 8 38
e 8 39
e 8 40
e 8 41
e 8 42
e 8 43
e 8 44
e 8 45
e 8 46
e 8 47
e 8 48
e 8 49
e 8 50
e 8 51
e 8 52
e 8 53
e 8 54
e 8 55
e 8 56
e 8 57
e 8 58
e 8 59
e 8 60
e 8 61
e 8 62
e 8 63
e 8 64
e 8 65
e 8 66
e 8 67
e 8 68
e 8 69
e 8 78
e 8 79
e 8 85
e 8 88
e 8 90
e 8 92
e 8 95
e 8 96
e 8 97
e 8 98
e 8 99
e 8 100
e 9 24
e 9 26
e 9 29
e 9 30
e 9 31
e 9 32
e 9 33
e 9 34
e 9 35
e 9 36
e 9 37
e 9 38
e 9 39
e 9 40
e 9 41
e 9 42
e 9 43
e 9 44
e 9 45
e 9 46
e 9 47
e 9 48
e 9 49
e 9 50
e 9 51
e 9 52
e 9 53
e 9 54
e 9 55
e 9 56
e 9 57
e 9 58
e 9 59
e 9 60
e 9 61
e 9 62
e 9 63
e 9 64
e 9 65
e 9 66
e 9 76
e 9 80
e 9 91
e 9 92
e 9 93
e 9 95
e 9 96
e 9 97
e 9 98
e 9 99
e 9 100
e 10 25
e 10 26
e 10 29
e 10 30
e 10 31
e 10 32
e 10 33
e 10 34
e 10 35
e 10 36
e 10 37
e 10 38
e 10 39
e 10 40
e 10 41
e 10 42
e 10 43
e 10 44
e 10 45
e 10 46
e 10 47
e 10 48
e 10 49
e 10 50
e 10 51
e 10 52
e 10 53
e 10 54
e 10 55
e 10 56
e 10 57
e 10 58
e 10 59
e 10 60
e 10 61
e 10 62
e 10 63
e 10 64
e 10 65
e 10 66
e 10 73
e 10 76
e 10 83
e 10 93
e 10 95
e 10 96
e 10 97
e 10 98
e 10 99
e 10 100
e 11 18
e 11 25
e 11 26
e 11 27
e 11 28
e 11 29
e 11 30
e 11 31
e 11 32
e 11 39
e 11 40
e 11 41
e 11 42
e 11 43
e 11 44
e 11 45
e 11 46
e 11 47
e 11 48
e 11 49
e 11 50
e 11 51
e 11 62
e 11 63
e 11 64
e 11 65
e 11 66
e 11 71
e 11 89
e 11 90
e 11 92
e 11 93
e 11 94
e 11 95
e 11 96
e 11 97
e 12 25
e 12 26
e 12 39
e 12 40
e 12 41
e 12 42
e 12 43
e 12 44
e 12 45
e 12 46
e 12 47
e 12 49
e 12 50
e 12 51
e 12 52
e 12 56
e 12 62
e 12 65
e 12 66
e 13 25
e 13 39
e 13 40
e 13 41
e 13 42
e 13 43
e 13 44
e 13 45
e 13 46
e 13 47
e 13 48
e 13 49
e 13 50
e 13 51
e 13 62
e 13 63
e 13 64
e 13 65
e 13 66
e 13 72
e 13 74
e 14 25
e 14 39
e 14 40
e 14 41
e 14 42
e 14 43
e 14 44
e 14 45
e 14 46
e 14 47
e 14 48
e 14 49
e 14 50
e 14 51
e 14 52
e 14 55
e 14 63
e 14 64
e 14 65
e 14 66
e 14 72
e 14 75
e 14 76
e 14 80
e 14 84
e 14 87
e 14 88
e 14 91
e 14 92
e 14 94
e 14 95
e 14 96
e 14 98
e 14 99
e 14 100
e 15 27
e 15 28
e 15 29
e 15 30
e 15 31
e 15 32
e 15 33
e 15 34
e 15 35
e 15 36
e 15 37
e 15 38
e 15 39
e 15 40
e 15 41
e 15 42
e 15 43
e 15 44
e 15 45
e 15 46
e 15 47
e 15 48
e 15 49
e 15 50
e 15 51
e 15 56
e 15 59
e 15 64
e 15 65
e 15 66
e 15 74
e 15 75
e 15 76
e 15 78
e 15 79
e 15 80
e 15 84
e 15 92
e 15 93
e 15 94
e 15 95
e 15 97
e 15 98
e 15 99
e 15 100
e 16 25
e 16 27
e 16 28
e 16 29
e 16 30
e 16 31
e 16 32
e 16 33
e 16 34
e 16 35
e 16 36
e 16 37
e 16 38
e 16 39
e 16 40
e 16 41
e 16 42
e 16 43
e 16 44
e 16 45
e 16 46
e 16 47
e 16 48
e 16 49
e 16 50
e 16 51
e 16 56
e 16 63
e 16 64
e 16 65
e 16 66
e 16 72
e 16 76
e 16 80
e 16 81
e 16 82
e 16 90
e 16 91
e 16 92
e 16 93
e 16 95
e 16 96
e 16 97
e 16 99
e 16 100
e 17 25
e 17 27
e 17 28
e 17 29
e 17 30
e 17 31
e 17 32
e 17 33
e 17 34
e 17 35
e 17 36
e 17 37
e 17 38
e 17 39
e 17 40
e 17 41
e 17 42
e 17 43
e 17 44
e 17 45
e 17 46
e 17 47
e 17 48
e 17 49
e 17 50
e 17 51
e 17 57
e 17 59
e 17 62
e 17 64
e 17 65
e 17 66
e 17 72
e 17 92
e 17 93
e 17 94
e 17 95
e 17 96
e 17 98
e 17 99
e 17 100
e 18 25
e 18 26
e 18 27
e 18 28
e 18 29
e 18 30
e 18 31
e 18 32
e 18 33
e 18 34
e 18 35
e 18 36
e 18 37
e 18 38
e 18 39
e 18 40
e 18 41
e 18 42
e 18 43
e 18 44
e 18 45
e 18 46
e 18 47
e 18 48
e 18 49
e 18 50
e 18 51
e 18 52
e 18 55
e 18 64
e 18 65
e 18 66
e 18 91
e 18 92
e 18 93
e 18 94
e 18 95
e 18 96
e 18 97
e 18 98
e 18 100
e 19 25
e 19 26
e 19 27
e 19 28
e 19 29
e 19 30
e 19 31
e 19 32
e 19 33
e 19 34
e 19 35
e 19 36
e 19 37
e 19 38
e 19 39
e 19 40
e 19 41
e 19 42
e 19 43
e 19 44
e 19 45
e 19 46
e 19 47
e 19 48
e 19 49
e 19 50
e 19 51
e 19 54
e 19 57
e 19 63
e 19 64
e 19 65
e 19 66
e 19 71
e 19 72
e 19 91
e 19 92
e 19 93
e 19 95
e 19 96
e 19 97
e 19 98
e 20 25
e 20 26
e 20 27
e 20 28
e 20 29
e 20 30
e 20 31
e 20 32
e 20 33
e 20 34
e 20 35
e 20 36
e 20 37
e 20 38
e 20 39
e 20 40
e 20 41
e 20 42
e 20 43
e 20 44
e 20 45
e 20 46
e 20 47
e 20 48
e 20 49
e 20 50
e 20 51
e 20 60
e 20 62
e 20 63
e 20 64
e 20 65
e 20 66
e 20 82
e 20 91
e 20 92
e 20 93
e 20 95
e 20 96
e 20 97
e 20 99
e 20 100
e 21 25
e 21 26
e 21 27
e 21 28
e 21 29
e 21 30
e 21 31
e 21 32
e 21 33
e 21 34
e 21 35
e 21 36
e 21 37
e 21 38
e 21 39
e 21 40
e 21 41
e 21 42
e 21 43
e 21 44
e 21 45
e 21 46
e 21 47
e 21 48
e 21 49
e 21 50
e 21 51
e 21 52
e 21 53
e 21 54
e 21 55
e 21 56
e 21 57
e 21 58
e 21 59
e 21 60
e 21 61
e 21 62
e 21 63
e 21 64
e 21 65
e 21 66
e 21 67
e 21 68
e 21 70
e 21 71
e 21 72
e 21 73
e 21 74
e 21 75
e 21 76
e 21 77
e 21 78
e 21 79
e 21 81
e 21 82
e 21 84
e 21 85
e 21 86
e 21 88
e 21 89
e 21 90
e 21 91
e 21 92
e 21 93
e 21 94
e 21 95
e 21 96
e 21 97
e 21 98
e 21 99
e 22 25
e 22 26
e 22 27
e 22 28
e 22 29
e 22 30
e 22 31
e 22 32
e 22 33
e 22 34
e 22 35
e 22 36
e 22 37
e 22 38
e 22 39
e 22 40
e 22 41
e 22 42
e 22 43
e 22 44
e 22 45
e 22 46
e 22 47
e 22 48
e 22 49
e 22 50
e 22 51
e 22 52
e 22 53
e 22 54
e 22 55
e 22 56
e 22 57
e 22 58
e 22 59
e 22 60
e 22 61
e 22 62
e 22 63
e 22 64
e 22 65
e 22 66
e 22 67
e 22 68
e 22 69
e 22 70
e 22 71
e 22 72
e 22 73
e 22 74
e 22 75
e 22 76
e 22 77
e 22 80
e 22 82
e 22 83
e 22 84
e 22 88
e 22 89
e 22 90
e 22 91
e 22 92
e 22 93
e 22 96
e 22 99
e 23 25
e 23 26
e 23 27
e 23 28
e 23 30
e 23 31
e 23 32
e 23 33
e 23 34
e 23 35
e 23 36
e 23 38
e 23 41
e 23 42
e 23 44
e 23 45
e 23 46
e 23 47
e 23 48
e 23 49
e 23 50
e 23 51
e 23 52
e 23 53
e 23 54
e 23 55
e 23 56
e 23 57
e 23 58
e 23 59
e 23 60
e 23 61
e 23 62
e 23 63
e 23 64
e 23 65
e 23 67
e 23 68
e 23 69
e 23 70
e 23 71
e 23 72
e 23 73
e 23 74
e 23 75
e 23 76
e 23 79
e 23 81
e 23 82
e 23 83
e 23 84
e 23 85
e 23 86
e 23 87
e 23 88
e 23 89
e 23 90
e 23 91
e 23 92
e 23 93
e 23 94
e 23 95
e 23 96
e 23 97
e 23 98
e 23 99
e 23 100
e 24 25
e 24 26
e 24 27
e 24 28
e 24 29
e 24 30
e 24 31
e 24 32
e 24 33
e 24 34
e 24 35
e 24 36
e 24 37
e 24 38
e 24 39
e 24 40
e 24 41
e 24 42
e 24 43
e 24 44
e 24 45
e 24 46
e 24 47
e 24 48
e 24 49
e 24 50
e 24 51
e 24 52
e 24 53
e 24 54
e 24 55
e 24 56
e 24 57
e 24 59
e 24 60
e 24 61
e 24 62
e 24 63
e 24 65
e 24 66
e 24 67
e 24 68
e 24 69
e 24 70
e 24 72
e 24 73
e 24 74
e 24 76
e 24 77
e 24 79
e 24 80
e 24 81
e 24 82
e 24 83
e 24 84
e 24 85
e 24 87
e 24 88
e 24 89
e 24 90
e 24 91
e 24 93
e 24 94
e 24 95
e 24 97
e 24 98
e 24 100
e 25 52
e 25 66
e 25 67
e 25 68
e 25 69
e 25 70
e 25 71
e 25 72
e 25 73
e 25 74
e 25 75
e 25 76
e 25 77
e 25 78
e 25 79
e 25 80
e 25 81
e 25 84
e 25 86
e 25 87
e 25 88
e 25 89
e 25 91
e 25 93
e 25 94
e 25 95
e 25 96
e 25 97
e 25 98
e 25 99
e 25 100
e 27 71
e 27 86
e 27 88
e 27 90
e 27 95
e 27 98
e 27 99
e 27 100
e 28 71
e 28 83
e 28 88
e 28 89
e 28 91
e 29 84
e 29 85
e 29 86
e 29 96
e 29 98
e 30 36
e 30 54
e 30 85
e 31 71
e 31 91
e 31 92
e 31 93
e 31 94
e 33 71
e 33 85
e 33 87
e 34 85
e 35 82
e 35 83
e 35 84
e 38 51
e 39 99
e 40 71
e 55 87
e 63 77
e 63 83
e 63 86
e 68 89
e 70 72
e 70 94
e 70 95
e 70 96
e 70 97
e 70 98
e 70 99
e 70 100
e 71 94
e 71 95
e 71 96
e 71 97
e 71 98
e 71 99
e 71 100
e 72 94
e 72 95
e 72 96
e 72 97
e 72 98
e 72 99
e 72 100
e 73 94
e 73 95
e 73 96
e 73 97
e 73 98
e 73 99
e 73 100
e 74 91
e 74 94
e 74 95
e 74 96
e 74 97
e 74 98
e 74 99
e 74 100
e 75 94
e 75 95
e 75 96
e 75 97
e 75 98
e 75 99
e 75 100
e 76 94
e 76 95
e 76 96
e 76 97
e 76 98
e 76 99
e 76 100
e 77 78
e 77 94
e 77 95
e 77 96
e 77 97
e 77 98
e 77 99
e 77 100
e 78 94
e 78 95
e 78 96
e 78 97
e 78 98
e 78 99
e 78 100
e 79 89
e 79 94
e 79 95
e 79 96
e 79 97
e 79 98
e 79 99
e 79 100
e 80 89
e 80 94
e 80 95
e 80 96
e 80 97
e 80 98
e 80 99
e 80 100
e 81 89
e 81 94
e 81 95
e 81 96
e 81 97
e 81 98
e 81 99
e 81 100
e 82 94
e 82 95
e 82 96
e 82 97
e 82 98
e 82 99
e 83 90
e 83 91
e 83 92
e 83 93
e 83 94
e 83 95
e 83 96
e 83 97
e 83 98
e 83 99
e 83 100
e 84 90
e 84 91
e 84 92
e 84 93
e 84 94
e 84 95
e 84 96
e 84 98
e 84 99
e 84 100
e 85 89
e 85 91
e 85 92
e 85 93
e 85 94
e 85 95
e 85 96
e 85 97
e 85 98
e 85 99
e 85 100
e 86 90
e 86 91
e 86 92
e 86 93
e 86 94
e 86 95
e 86 96
e 86 97
e 86 98
e 86 100
e 87 89
e 87 90
e 87 91
e 87 92
e 87 93
e 87 94
e 87 95
e 87 96
e 87 97
e 87 98
e 87 99
e 87 100
e 88 90
e 88 91
e 88 92
e 88 93
e 88 94
e 88 95
e 88 96
e 88 97
e 88 98
e 88 99
e 88 100
e 90 96
e 91 96
